[VALIDATOR STDOUT]
Checking plan: /home/jfan5/Safety-gen/runs/benchmark/optic/ferry_20260205_141548/ferry/optic_results/ferry-l47-c24-s47001.plan
Plan to validate:

Plan size: 113
1:
(sail l16 l9)
 
2:
(sail l9 l8)
 
3:
(board c3 l8)
 
4:
(sail l8 l9)
 
5:
(sail l9 l6)
 
6:
(debark c3 l6)
 
7:
(sail l6 l45)
 
8:
(board c11 l45)
 
9:
(sail l45 l35)
 
10:
(debark c11 l35)
 
11:
(board c22 l35)
 
12:
(sail l35 l30)
 
13:
(debark c22 l30)
 
14:
(board c23 l30)
 
15:
(sail l30 l18)
 
16:
(debark c23 l18)
 
17:
(sail l18 l9)
 
18:
(sail l9 l44)
 
19:
(board c10 l44)
 
20:
(sail l44 l9)
 
21:
(sail l9 l43)
 
22:
(debark c10 l43)
 
23:
(sail l43 l41)
 
24:
(board c7 l41)
 
25:
(sail l41 l9)
 
26:
(debark c7 l9)
 
27:
(sail l9 l4)
 
28:
(board c19 l4)
 
29:
(sail l4 l9)
 
30:
(sail l9 l29)
 
31:
(debark c19 l29)
 
32:
(board c17 l29)
 
33:
(sail l29 l9)
 
34:
(sail l9 l6)
 
35:
(debark c17 l6)
 
36:
(sail l6 l9)
 
37:
(sail l9 l39)
 
38:
(board c9 l39)
 
39:
(sail l39 l9)
 
40:
(sail l9 l14)
 
41:
(debark c9 l14)
 
42:
(sail l14 l38)
 
43:
(board c6 l38)
 
44:
(sail l38 l9)
 
45:
(sail l9 l0)
 
46:
(debark c6 l0)
 
47:
(sail l0 l9)
 
48:
(sail l9 l35)
 
49:
(board c2 l35)
 
50:
(sail l35 l14)
 
51:
(debark c2 l14)
 
52:
(sail l14 l9)
 
53:
(sail l9 l34)
 
54:
(board c4 l34)
 
55:
(sail l34 l22)
 
56:
(debark c4 l22)
 
57:
(board c12 l22)
 
58:
(sail l22 l26)
 
59:
(debark c12 l26)
 
60:
(sail l26 l9)
 
61:
(sail l9 l34)
 
62:
(board c0 l34)
 
63:
(sail l34 l12)
 
64:
(debark c0 l12)
 
65:
(sail l12 l9)
 
66:
(sail l9 l32)
 
67:
(board c14 l32)
 
68:
(sail l32 l9)
 
69:
(debark c14 l9)
 
70:
(sail l9 l46)
 
71:
(sail l46 l31)
 
72:
(board c16 l31)
 
73:
(sail l31 l46)
 
74:
(sail l46 l27)
 
75:
(debark c16 l27)
 
76:
(sail l27 l46)
 
77:
(sail l46 l30)
 
78:
(board c21 l30)
 
79:
(sail l30 l46)
 
80:
(sail l46 l34)
 
81:
(debark c21 l34)
 
82:
(sail l34 l23)
 
83:
(board c20 l23)
 
84:
(sail l23 l46)
 
85:
(sail l46 l34)
 
86:
(debark c20 l34)
 
87:
(sail l34 l46)
 
88:
(sail l46 l22)
 
89:
(board c1 l22)
 
90:
(sail l22 l46)
 
91:
(sail l46 l43)
 
92:
(debark c1 l43)
 
93:
(sail l43 l46)
 
94:
(sail l46 l2)
 
95:
(board c13 l2)
 
96:
(sail l2 l46)
 
97:
(sail l46 l35)
 
98:
(debark c13 l35)
 
99:
(sail l35 l46)
 
100:
(sail l46 l19)
 
101:
(board c8 l19)
 
102:
(sail l19 l46)
 
103:
(sail l46 l1)
 
104:
(debark c8 l1)
 
105:
(board c15 l1)
 
106:
(sail l1 l46)
 
107:
(sail l46 l45)
 
108:
(debark c15 l45)
 
109:
(sail l45 l46)
 
110:
(sail l46 l11)
 
111:
(board c5 l11)
 
112:
(sail l11 l46)
 
113:
(debark c5 l46)
 

Plan Validation details
-----------------------

Checking next happening (time 1)
Deleting (at-ferry l16)
Adding (at-ferry l9)

Checking next happening (time 2)
Deleting (at-ferry l9)
Adding (at-ferry l8)

Checking next happening (time 3)
Deleting (at c3 l8)
Deleting (empty-ferry)
Adding (on c3)

Checking next happening (time 4)
Deleting (at-ferry l8)
Adding (at-ferry l9)

Checking next happening (time 5)
Deleting (at-ferry l9)
Adding (at-ferry l6)

Checking next happening (time 6)
Deleting (on c3)
Adding (at c3 l6)
Adding (empty-ferry)

Checking next happening (time 7)
Deleting (at-ferry l6)
Adding (at-ferry l45)

Checking next happening (time 8)
Deleting (at c11 l45)
Deleting (empty-ferry)
Adding (on c11)

Checking next happening (time 9)
Deleting (at-ferry l45)
Adding (at-ferry l35)

Checking next happening (time 10)
Deleting (on c11)
Adding (at c11 l35)
Adding (empty-ferry)

Checking next happening (time 11)
Deleting (at c22 l35)
Deleting (empty-ferry)
Adding (on c22)

Checking next happening (time 12)
Deleting (at-ferry l35)
Adding (at-ferry l30)

Checking next happening (time 13)
Deleting (on c22)
Adding (at c22 l30)
Adding (empty-ferry)

Checking next happening (time 14)
Deleting (at c23 l30)
Deleting (empty-ferry)
Adding (on c23)

Checking next happening (time 15)
Deleting (at-ferry l30)
Adding (at-ferry l18)

Checking next happening (time 16)
Deleting (on c23)
Adding (at c23 l18)
Adding (empty-ferry)

Checking next happening (time 17)
Deleting (at-ferry l18)
Adding (at-ferry l9)

Checking next happening (time 18)
Deleting (at-ferry l9)
Adding (at-ferry l44)

Checking next happening (time 19)
Deleting (at c10 l44)
Deleting (empty-ferry)
Adding (on c10)

Checking next happening (time 20)
Deleting (at-ferry l44)
Adding (at-ferry l9)

Checking next happening (time 21)
Deleting (at-ferry l9)
Adding (at-ferry l43)

Checking next happening (time 22)
Deleting (on c10)
Adding (at c10 l43)
Adding (empty-ferry)

Checking next happening (time 23)
Deleting (at-ferry l43)
Adding (at-ferry l41)

Checking next happening (time 24)
Deleting (at c7 l41)
Deleting (empty-ferry)
Adding (on c7)

Checking next happening (time 25)
Deleting (at-ferry l41)
Adding (at-ferry l9)

Checking next happening (time 26)
Deleting (on c7)
Adding (at c7 l9)
Adding (empty-ferry)

Checking next happening (time 27)
Deleting (at-ferry l9)
Adding (at-ferry l4)

Checking next happening (time 28)
Deleting (at c19 l4)
Deleting (empty-ferry)
Adding (on c19)

Checking next happening (time 29)
Deleting (at-ferry l4)
Adding (at-ferry l9)

Checking next happening (time 30)
Deleting (at-ferry l9)
Adding (at-ferry l29)

Checking next happening (time 31)
Deleting (on c19)
Adding (at c19 l29)
Adding (empty-ferry)

Checking next happening (time 32)
Deleting (at c17 l29)
Deleting (empty-ferry)
Adding (on c17)

Checking next happening (time 33)
Deleting (at-ferry l29)
Adding (at-ferry l9)

Checking next happening (time 34)
Deleting (at-ferry l9)
Adding (at-ferry l6)

Checking next happening (time 35)
Deleting (on c17)
Adding (at c17 l6)
Adding (empty-ferry)

Checking next happening (time 36)
Deleting (at-ferry l6)
Adding (at-ferry l9)

Checking next happening (time 37)
Deleting (at-ferry l9)
Adding (at-ferry l39)

Checking next happening (time 38)
Deleting (at c9 l39)
Deleting (empty-ferry)
Adding (on c9)

Checking next happening (time 39)
Deleting (at-ferry l39)
Adding (at-ferry l9)

Checking next happening (time 40)
Deleting (at-ferry l9)
Adding (at-ferry l14)

Checking next happening (time 41)
Deleting (on c9)
Adding (at c9 l14)
Adding (empty-ferry)

Checking next happening (time 42)
Deleting (at-ferry l14)
Adding (at-ferry l38)

Checking next happening (time 43)
Deleting (at c6 l38)
Deleting (empty-ferry)
Adding (on c6)

Checking next happening (time 44)
Deleting (at-ferry l38)
Adding (at-ferry l9)

Checking next happening (time 45)
Deleting (at-ferry l9)
Adding (at-ferry l0)

Checking next happening (time 46)
Deleting (on c6)
Adding (at c6 l0)
Adding (empty-ferry)

Checking next happening (time 47)
Deleting (at-ferry l0)
Adding (at-ferry l9)

Checking next happening (time 48)
Deleting (at-ferry l9)
Adding (at-ferry l35)

Checking next happening (time 49)
Deleting (at c2 l35)
Deleting (empty-ferry)
Adding (on c2)

Checking next happening (time 50)
Deleting (at-ferry l35)
Adding (at-ferry l14)

Checking next happening (time 51)
Deleting (on c2)
Adding (at c2 l14)
Adding (empty-ferry)

Checking next happening (time 52)
Deleting (at-ferry l14)
Adding (at-ferry l9)

Checking next happening (time 53)
Deleting (at-ferry l9)
Adding (at-ferry l34)

Checking next happening (time 54)
Deleting (at c4 l34)
Deleting (empty-ferry)
Adding (on c4)

Checking next happening (time 55)
Deleting (at-ferry l34)
Adding (at-ferry l22)

Checking next happening (time 56)
Deleting (on c4)
Adding (at c4 l22)
Adding (empty-ferry)

Checking next happening (time 57)
Deleting (at c12 l22)
Deleting (empty-ferry)
Adding (on c12)

Checking next happening (time 58)
Deleting (at-ferry l22)
Adding (at-ferry l26)

Checking next happening (time 59)
Deleting (on c12)
Adding (at c12 l26)
Adding (empty-ferry)

Checking next happening (time 60)
Deleting (at-ferry l26)
Adding (at-ferry l9)

Checking next happening (time 61)
Deleting (at-ferry l9)
Adding (at-ferry l34)

Checking next happening (time 62)
Deleting (at c0 l34)
Deleting (empty-ferry)
Adding (on c0)

Checking next happening (time 63)
Deleting (at-ferry l34)
Adding (at-ferry l12)

Checking next happening (time 64)
Deleting (on c0)
Adding (at c0 l12)
Adding (empty-ferry)

Checking next happening (time 65)
Deleting (at-ferry l12)
Adding (at-ferry l9)

Checking next happening (time 66)
Deleting (at-ferry l9)
Adding (at-ferry l32)

Checking next happening (time 67)
Deleting (at c14 l32)
Deleting (empty-ferry)
Adding (on c14)

Checking next happening (time 68)
Deleting (at-ferry l32)
Adding (at-ferry l9)

Checking next happening (time 69)
Deleting (on c14)
Adding (at c14 l9)
Adding (empty-ferry)

Checking next happening (time 70)
Deleting (at-ferry l9)
Adding (at-ferry l46)

Checking next happening (time 71)
Deleting (at-ferry l46)
Adding (at-ferry l31)

Checking next happening (time 72)
Deleting (at c16 l31)
Deleting (empty-ferry)
Adding (on c16)

Checking next happening (time 73)
Deleting (at-ferry l31)
Adding (at-ferry l46)

Checking next happening (time 74)
Deleting (at-ferry l46)
Adding (at-ferry l27)

Checking next happening (time 75)
Deleting (on c16)
Adding (at c16 l27)
Adding (empty-ferry)

Checking next happening (time 76)
Deleting (at-ferry l27)
Adding (at-ferry l46)

Checking next happening (time 77)
Deleting (at-ferry l46)
Adding (at-ferry l30)

Checking next happening (time 78)
Deleting (at c21 l30)
Deleting (empty-ferry)
Adding (on c21)

Checking next happening (time 79)
Deleting (at-ferry l30)
Adding (at-ferry l46)

Checking next happening (time 80)
Deleting (at-ferry l46)
Adding (at-ferry l34)

Checking next happening (time 81)
Deleting (on c21)
Adding (at c21 l34)
Adding (empty-ferry)

Checking next happening (time 82)
Deleting (at-ferry l34)
Adding (at-ferry l23)

Checking next happening (time 83)
Deleting (at c20 l23)
Deleting (empty-ferry)
Adding (on c20)

Checking next happening (time 84)
Deleting (at-ferry l23)
Adding (at-ferry l46)

Checking next happening (time 85)
Deleting (at-ferry l46)
Adding (at-ferry l34)

Checking next happening (time 86)
Deleting (on c20)
Adding (at c20 l34)
Adding (empty-ferry)

Checking next happening (time 87)
Deleting (at-ferry l34)
Adding (at-ferry l46)

Checking next happening (time 88)
Deleting (at-ferry l46)
Adding (at-ferry l22)

Checking next happening (time 89)
Deleting (at c1 l22)
Deleting (empty-ferry)
Adding (on c1)

Checking next happening (time 90)
Deleting (at-ferry l22)
Adding (at-ferry l46)

Checking next happening (time 91)
Deleting (at-ferry l46)
Adding (at-ferry l43)

Checking next happening (time 92)
Deleting (on c1)
Adding (at c1 l43)
Adding (empty-ferry)

Checking next happening (time 93)
Deleting (at-ferry l43)
Adding (at-ferry l46)

Checking next happening (time 94)
Deleting (at-ferry l46)
Adding (at-ferry l2)

Checking next happening (time 95)
Deleting (at c13 l2)
Deleting (empty-ferry)
Adding (on c13)

Checking next happening (time 96)
Deleting (at-ferry l2)
Adding (at-ferry l46)

Checking next happening (time 97)
Deleting (at-ferry l46)
Adding (at-ferry l35)

Checking next happening (time 98)
Deleting (on c13)
Adding (at c13 l35)
Adding (empty-ferry)

Checking next happening (time 99)
Deleting (at-ferry l35)
Adding (at-ferry l46)

Checking next happening (time 100)
Deleting (at-ferry l46)
Adding (at-ferry l19)

Checking next happening (time 101)
Deleting (at c8 l19)
Deleting (empty-ferry)
Adding (on c8)

Checking next happening (time 102)
Deleting (at-ferry l19)
Adding (at-ferry l46)

Checking next happening (time 103)
Deleting (at-ferry l46)
Adding (at-ferry l1)

Checking next happening (time 104)
Deleting (on c8)
Adding (at c8 l1)
Adding (empty-ferry)

Checking next happening (time 105)
Deleting (at c15 l1)
Deleting (empty-ferry)
Adding (on c15)

Checking next happening (time 106)
Deleting (at-ferry l1)
Adding (at-ferry l46)

Checking next happening (time 107)
Deleting (at-ferry l46)
Adding (at-ferry l45)

Checking next happening (time 108)
Deleting (on c15)
Adding (at c15 l45)
Adding (empty-ferry)

Checking next happening (time 109)
Deleting (at-ferry l45)
Adding (at-ferry l46)

Checking next happening (time 110)
Deleting (at-ferry l46)
Adding (at-ferry l11)

Checking next happening (time 111)
Deleting (at c5 l11)
Deleting (empty-ferry)
Adding (on c5)

Checking next happening (time 112)
Deleting (at-ferry l11)
Adding (at-ferry l46)

Checking next happening (time 113)
Deleting (on c5)
Adding (at c5 l46)
Adding (empty-ferry)
Plan executed successfully - checking goal
Plan valid
Final value: 113 

Successful plans:
Value: 113
 /home/jfan5/Safety-gen/runs/benchmark/optic/ferry_20260205_141548/ferry/optic_results/ferry-l47-c24-s47001.plan 113
